min: c;

c = 3.25573167551602 * u5_t4_h2 + 3.25573167551602 * u5_t7_h2 + 3.51395806103774 * u5_t4_h3 + 3.51395806103774 * u5_t7_h3 + 3.03392469186098 * u5_t1_h4 + 3.03392469186098 * u5_t3_h4 + 3.03392469186098 * u5_t4_h4 + 3.03392469186098 * u5_t7_h4 + 3.19674820939541 * u5_t1_h5 + 3.19674820939541 * u5_t3_h5 + 3.19674820939541 * u5_t4_h5 + 3.19674820939541 * u5_t7_h5 + 3.97542679483455 * u5_t1_h6 + 3.97542679483455 * u5_t3_h6 + 3.97542679483455 * u5_t4_h6 + 3.97542679483455 * u5_t6_h6 + 3.97542679483455 * u5_t7_h6 + 4.35938653630312 * u5_t1_h7 + 4.35938653630312 * u5_t3_h7 + 4.35938653630312 * u5_t4_h7 + 4.35938653630312 * u5_t6_h7 + 5.20601321649838 * u5_t1_h8 + 5.20601321649838 * u5_t3_h8 + 5.20601321649838 * u5_t4_h8 + 5.20601321649838 * u5_t6_h8 + 5.28058372163128 * u5_t1_h9 + 5.28058372163128 * u5_t3_h9 + 5.28058372163128 * u5_t4_h9 + 5.28058372163128 * u5_t6_h9 + 4.96259716179997 * u5_t1_h10 + 4.96259716179997 * u5_t3_h10 + 4.96259716179997 * u5_t4_h10 + 4.96259716179997 * u5_t6_h10 + 3.82816011509472 * u5_t1_h11 + 3.82816011509472 * u5_t3_h11 + 3.82816011509472 * u5_t4_h11 + 3.82816011509472 * u5_t6_h11 + 6.5408599396854 * u5_t1_h12 + 6.5408599396854 * u5_t3_h12 + 6.5408599396854 * u5_t4_h12 + 6.5408599396854 * u5_t6_h12 + 4.47166205555246 * u5_t1_h13 + 4.47166205555246 * u5_t3_h13 + 4.47166205555246 * u5_t4_h13 + 4.47166205555246 * u5_t6_h13 + 4.47166205555246 * u5_t8_h13 + 5.63649931068174 * u5_t1_h14 + 5.63649931068174 * u5_t3_h14 + 5.63649931068174 * u5_t4_h14 + 5.63649931068174 * u5_t6_h14 + 5.63649931068174 * u5_t8_h14 + 6.29614045363895 * u5_t1_h15 + 6.29614045363895 * u5_t3_h15 + 6.29614045363895 * u5_t4_h15 + 6.29614045363895 * u5_t6_h15 + 6.29614045363895 * u5_t8_h15 + 6.29614045363895 * u5_t9_h15 + 5.94538528672497 * u5_t1_h16 + 5.94538528672497 * u5_t3_h16 + 5.94538528672497 * u5_t4_h16 + 5.94538528672497 * u5_t5_h16 + 5.94538528672497 * u5_t6_h16 + 5.94538528672497 * u5_t8_h16 + 5.94538528672497 * u5_t9_h16 + 6.70500136686307 * u5_t1_h17 + 6.70500136686307 * u5_t5_h17 + 6.70500136686307 * u5_t6_h17 + 6.70500136686307 * u5_t8_h17 + 6.70500136686307 * u5_t9_h17 + 6.70500136686307 * u5_t10_h17 + 6.45111785894243 * u5_t1_h18 + 6.45111785894243 * u5_t2_h18 + 6.45111785894243 * u5_t5_h18 + 6.45111785894243 * u5_t6_h18 + 6.45111785894243 * u5_t9_h18 + 6.45111785894243 * u5_t10_h18 + 5.24202638166664 * u5_t1_h19 + 5.24202638166664 * u5_t2_h19 + 5.24202638166664 * u5_t5_h19 + 5.24202638166664 * u5_t9_h19 + 5.24202638166664 * u5_t10_h19 + 5.37695093844066 * u5_t1_h20 + 5.37695093844066 * u5_t2_h20 + 5.37695093844066 * u5_t5_h20 + 5.37695093844066 * u5_t9_h20 + 5.37695093844066 * u5_t10_h20 + 5.64901231197403 * u5_t2_h21 + 5.64901231197403 * u5_t5_h21 + 5.64901231197403 * u5_t9_h21 + 5.64901231197403 * u5_t10_h21 + 5.86401299003475 * u5_t2_h22 + 5.86401299003475 * u5_t5_h22 + 5.86401299003475 * u5_t9_h22 + 5.86401299003475 * u5_t10_h22 + 5.24207910092557 * u5_t5_h23 + 5.24207910092557 * u5_t9_h23 + 5.24207910092557 * u5_t10_h23;
0 <= u5_t1_h4 <= 1;
0 <= u5_t1_h5 <= 1;
0 <= u5_t1_h6 <= 1;
0 <= u5_t1_h7 <= 1;
0 <= u5_t1_h8 <= 1;
0 <= u5_t1_h9 <= 1;
0 <= u5_t1_h10 <= 1;
0 <= u5_t1_h11 <= 1;
0 <= u5_t1_h12 <= 1;
0 <= u5_t1_h13 <= 1;
0 <= u5_t1_h14 <= 1;
0 <= u5_t1_h15 <= 1;
0 <= u5_t1_h16 <= 1;
0 <= u5_t1_h17 <= 1;
0 <= u5_t1_h18 <= 1;
0 <= u5_t1_h19 <= 1;
0 <= u5_t1_h20 <= 1;
u5_t1_h4 + u5_t1_h5 + u5_t1_h6 + u5_t1_h7 + u5_t1_h8 + u5_t1_h9 + u5_t1_h10 + u5_t1_h11 + u5_t1_h12 + u5_t1_h13 + u5_t1_h14 + u5_t1_h15 + u5_t1_h16 + u5_t1_h17 + u5_t1_h18 + u5_t1_h19 + u5_t1_h20 = 1;
0 <= u5_t2_h18 <= 1;
0 <= u5_t2_h19 <= 1;
0 <= u5_t2_h20 <= 1;
0 <= u5_t2_h21 <= 1;
0 <= u5_t2_h22 <= 1;
u5_t2_h18 + u5_t2_h19 + u5_t2_h20 + u5_t2_h21 + u5_t2_h22 = 3;
0 <= u5_t3_h4 <= 1;
0 <= u5_t3_h5 <= 1;
0 <= u5_t3_h6 <= 1;
0 <= u5_t3_h7 <= 1;
0 <= u5_t3_h8 <= 1;
0 <= u5_t3_h9 <= 1;
0 <= u5_t3_h10 <= 1;
0 <= u5_t3_h11 <= 1;
0 <= u5_t3_h12 <= 1;
0 <= u5_t3_h13 <= 1;
0 <= u5_t3_h14 <= 1;
0 <= u5_t3_h15 <= 1;
0 <= u5_t3_h16 <= 1;
u5_t3_h4 + u5_t3_h5 + u5_t3_h6 + u5_t3_h7 + u5_t3_h8 + u5_t3_h9 + u5_t3_h10 + u5_t3_h11 + u5_t3_h12 + u5_t3_h13 + u5_t3_h14 + u5_t3_h15 + u5_t3_h16 = 1;
0 <= u5_t4_h2 <= 1;
0 <= u5_t4_h3 <= 1;
0 <= u5_t4_h4 <= 1;
0 <= u5_t4_h5 <= 1;
0 <= u5_t4_h6 <= 1;
0 <= u5_t4_h7 <= 1;
0 <= u5_t4_h8 <= 1;
0 <= u5_t4_h9 <= 1;
0 <= u5_t4_h10 <= 1;
0 <= u5_t4_h11 <= 1;
0 <= u5_t4_h12 <= 1;
0 <= u5_t4_h13 <= 1;
0 <= u5_t4_h14 <= 1;
0 <= u5_t4_h15 <= 1;
0 <= u5_t4_h16 <= 1;
u5_t4_h2 + u5_t4_h3 + u5_t4_h4 + u5_t4_h5 + u5_t4_h6 + u5_t4_h7 + u5_t4_h8 + u5_t4_h9 + u5_t4_h10 + u5_t4_h11 + u5_t4_h12 + u5_t4_h13 + u5_t4_h14 + u5_t4_h15 + u5_t4_h16 = 3;
0 <= u5_t5_h16 <= 1;
0 <= u5_t5_h17 <= 1;
0 <= u5_t5_h18 <= 1;
0 <= u5_t5_h19 <= 1;
0 <= u5_t5_h20 <= 1;
0 <= u5_t5_h21 <= 1;
0 <= u5_t5_h22 <= 1;
0 <= u5_t5_h23 <= 1;
u5_t5_h16 + u5_t5_h17 + u5_t5_h18 + u5_t5_h19 + u5_t5_h20 + u5_t5_h21 + u5_t5_h22 + u5_t5_h23 = 2;
0 <= u5_t6_h6 <= 1;
0 <= u5_t6_h7 <= 1;
0 <= u5_t6_h8 <= 1;
0 <= u5_t6_h9 <= 1;
0 <= u5_t6_h10 <= 1;
0 <= u5_t6_h11 <= 1;
0 <= u5_t6_h12 <= 1;
0 <= u5_t6_h13 <= 1;
0 <= u5_t6_h14 <= 1;
0 <= u5_t6_h15 <= 1;
0 <= u5_t6_h16 <= 1;
0 <= u5_t6_h17 <= 1;
0 <= u5_t6_h18 <= 1;
u5_t6_h6 + u5_t6_h7 + u5_t6_h8 + u5_t6_h9 + u5_t6_h10 + u5_t6_h11 + u5_t6_h12 + u5_t6_h13 + u5_t6_h14 + u5_t6_h15 + u5_t6_h16 + u5_t6_h17 + u5_t6_h18 = 2;
0 <= u5_t7_h2 <= 1;
0 <= u5_t7_h3 <= 1;
0 <= u5_t7_h4 <= 1;
0 <= u5_t7_h5 <= 1;
0 <= u5_t7_h6 <= 1;
u5_t7_h2 + u5_t7_h3 + u5_t7_h4 + u5_t7_h5 + u5_t7_h6 = 1;
0 <= u5_t8_h13 <= 1;
0 <= u5_t8_h14 <= 1;
0 <= u5_t8_h15 <= 1;
0 <= u5_t8_h16 <= 1;
0 <= u5_t8_h17 <= 1;
u5_t8_h13 + u5_t8_h14 + u5_t8_h15 + u5_t8_h16 + u5_t8_h17 = 3;
0 <= u5_t9_h15 <= 1;
0 <= u5_t9_h16 <= 1;
0 <= u5_t9_h17 <= 1;
0 <= u5_t9_h18 <= 1;
0 <= u5_t9_h19 <= 1;
0 <= u5_t9_h20 <= 1;
0 <= u5_t9_h21 <= 1;
0 <= u5_t9_h22 <= 1;
0 <= u5_t9_h23 <= 1;
u5_t9_h15 + u5_t9_h16 + u5_t9_h17 + u5_t9_h18 + u5_t9_h19 + u5_t9_h20 + u5_t9_h21 + u5_t9_h22 + u5_t9_h23 = 1;
0 <= u5_t10_h17 <= 1;
0 <= u5_t10_h18 <= 1;
0 <= u5_t10_h19 <= 1;
0 <= u5_t10_h20 <= 1;
0 <= u5_t10_h21 <= 1;
0 <= u5_t10_h22 <= 1;
0 <= u5_t10_h23 <= 1;
u5_t10_h17 + u5_t10_h18 + u5_t10_h19 + u5_t10_h20 + u5_t10_h21 + u5_t10_h22 + u5_t10_h23 = 1;
